Welcome to the CBC MILP Solver 
Version: 2.10.7 
Build Date: Feb 14 2022 

command line - cbc inputs/new_tr/order/default35_down_left_input.lp sec 1800 solve solu solutions/new_tr/default35_down_left_input.lp (default strategy 1)
seconds was changed from 1e+100 to 1800
Continuous objective value is 30394.6 - 0.04 seconds
Cgl0002I 807 variables fixed
Cgl0003I 0 fixed, 1 tightened bounds, 440 strengthened rows, 0 substitutions
Cgl0003I 0 fixed, 0 tightened bounds, 10 strengthened rows, 0 substitutions
Cgl0004I processed model has 2104 rows, 698 columns (698 integer (662 of which binary)) and 6832 elements
Cutoff increment increased from 1e-05 to 0.9999
Cbc0045I 1 integer variables out of 698 objects (698 integer) have cost of 1 - high priority
Cbc0045I branch on satisfied Y create fake objective Y random cost Y
Cbc0038I Initial state - 264 integers unsatisfied sum - 61.4044
Cbc0038I Pass   1: suminf.    9.50117 (59) obj. 35490.4 iterations 833
Cbc0038I Pass   2: suminf.    6.89267 (46) obj. 34852.2 iterations 208
Cbc0038I Pass   3: suminf.    1.87608 (15) obj. 34816 iterations 189
Cbc0038I Pass   4: suminf.    0.00000 (0) obj. 34816 iterations 23
Cbc0038I Solution found of 34816
Cbc0038I Cleaned solution of 34816
Cbc0038I Before mini branch and bound, 416 integers at bound fixed and 0 continuous
Cbc0038I Mini branch and bound did not improve solution (0.21 seconds)
Cbc0038I Round again with cutoff of 34373
Cbc0038I Reduced cost fixing fixed 2 variables on major pass 2
Cbc0038I Pass   5: suminf.   11.86402 (107) obj. 34372 iterations 74
Cbc0038I Pass   6: suminf.    6.82532 (81) obj. 34373 iterations 236
Cbc0038I Pass   7: suminf.    6.57316 (80) obj. 34373 iterations 14
Cbc0038I Pass   8: suminf.    9.46073 (99) obj. 34373 iterations 397
Cbc0038I Pass   9: suminf.    7.48599 (94) obj. 34373 iterations 17
Cbc0038I Pass  10: suminf.    2.37964 (79) obj. 34373 iterations 87
Cbc0038I Pass  11: suminf.    2.29487 (80) obj. 34373 iterations 11
Cbc0038I Pass  12: suminf.    7.07549 (57) obj. 34373 iterations 250
Cbc0038I Pass  13: suminf.    7.01747 (58) obj. 34373 iterations 25
Cbc0038I Pass  14: suminf.    3.50072 (45) obj. 34373 iterations 45
Cbc0038I Pass  15: suminf.    3.49306 (47) obj. 34373 iterations 17
Cbc0038I Pass  16: suminf.   11.84046 (111) obj. 34373 iterations 364
Cbc0038I Pass  17: suminf.   11.91202 (124) obj. 34373 iterations 29
Cbc0038I Pass  18: suminf.    9.38663 (59) obj. 34373 iterations 205
Cbc0038I Pass  19: suminf.    7.84500 (59) obj. 34373 iterations 89
Cbc0038I Pass  20: suminf.    7.84500 (59) obj. 34373 iterations 13
Cbc0038I Pass  21: suminf.    8.85452 (63) obj. 34373 iterations 138
Cbc0038I Pass  22: suminf.    8.69743 (62) obj. 34373 iterations 13
Cbc0038I Pass  23: suminf.    8.01670 (58) obj. 34373 iterations 106
Cbc0038I Pass  24: suminf.    7.49953 (51) obj. 34373 iterations 62
Cbc0038I Pass  25: suminf.    4.94918 (49) obj. 34373 iterations 186
Cbc0038I Pass  26: suminf.    4.95011 (50) obj. 34373 iterations 52
Cbc0038I Pass  27: suminf.    4.55591 (50) obj. 34373 iterations 11
Cbc0038I Pass  28: suminf.   10.84442 (59) obj. 34373 iterations 407
Cbc0038I Pass  29: suminf.   10.73955 (56) obj. 34373 iterations 17
Cbc0038I Pass  30: suminf.   11.12434 (54) obj. 34373 iterations 14
Cbc0038I Pass  31: suminf.   11.12434 (54) obj. 34373 iterations 14
Cbc0038I Pass  32: suminf.   35.59697 (203) obj. 34373 iterations 419
Cbc0038I Pass  33: suminf.   15.98243 (127) obj. 34373 iterations 249
Cbc0038I Pass  34: suminf.   12.69388 (109) obj. 34373 iterations 75
Cbc0038I Pass  35: suminf.    9.21204 (70) obj. 34373 iterations 295
Cbc0038I Pass  36: suminf.    7.84876 (69) obj. 34373 iterations 12
Cbc0038I Pass  37: suminf.    8.56843 (98) obj. 34373 iterations 235
Cbc0038I Pass  38: suminf.    7.05933 (75) obj. 34373 iterations 101
Cbc0038I Pass  39: suminf.    6.35580 (83) obj. 34373 iterations 87
Cbc0038I Pass  40: suminf.    6.35580 (83) obj. 34373 iterations 18
Cbc0038I Pass  41: suminf.    5.31241 (67) obj. 34373 iterations 189
Cbc0038I Pass  42: suminf.    3.85201 (52) obj. 34373 iterations 25
Cbc0038I Pass  43: suminf.    5.87108 (51) obj. 34373 iterations 98
Cbc0038I Pass  44: suminf.    5.81286 (51) obj. 34373 iterations 6
Cbc0038I Pass  45: suminf.    7.27776 (68) obj. 34373 iterations 97
Cbc0038I Pass  46: suminf.    7.33453 (71) obj. 34373 iterations 14
Cbc0038I Pass  47: suminf.    3.28934 (41) obj. 34373 iterations 87
Cbc0038I Pass  48: suminf.    3.28934 (41) obj. 34373 iterations 1
Cbc0038I Pass  49: suminf.    7.25587 (34) obj. 34373 iterations 92
Cbc0038I Pass  50: suminf.    5.64253 (55) obj. 34373 iterations 46
Cbc0038I Pass  51: suminf.    8.61029 (71) obj. 34373 iterations 128
Cbc0038I Pass  52: suminf.    8.54541 (66) obj. 34373 iterations 26
Cbc0038I Pass  53: suminf.    7.82014 (68) obj. 34373 iterations 280
Cbc0038I Pass  54: suminf.    5.03811 (47) obj. 34373 iterations 34
Cbc0038I Pass  55: suminf.    5.03811 (47) obj. 34373 iterations 6
Cbc0038I Pass  56: suminf.    8.12310 (76) obj. 34373 iterations 157
Cbc0038I Pass  57: suminf.    6.87637 (76) obj. 34373 iterations 7
Cbc0038I Pass  58: suminf.    5.94767 (67) obj. 34373 iterations 152
Cbc0038I Pass  59: suminf.    4.88344 (77) obj. 34373 iterations 53
Cbc0038I Pass  60: suminf.    8.02939 (77) obj. 34373 iterations 81
Cbc0038I Pass  61: suminf.    4.02736 (48) obj. 34373 iterations 27
Cbc0038I Pass  62: suminf.    4.02736 (48) obj. 34373 iterations 3
Cbc0038I Pass  63: suminf.    7.59798 (54) obj. 34373 iterations 77
Cbc0038I Pass  64: suminf.    5.53870 (55) obj. 34373 iterations 23
Cbc0038I Pass  65: suminf.    5.32268 (55) obj. 34373 iterations 17
Cbc0038I Pass  66: suminf.    3.13546 (45) obj. 34373 iterations 127
Cbc0038I Pass  67: suminf.    3.02461 (48) obj. 34373 iterations 14
Cbc0038I Pass  68: suminf.    6.77415 (52) obj. 34373 iterations 107
Cbc0038I Pass  69: suminf.    4.77309 (53) obj. 34373 iterations 27
Cbc0038I Pass  70: suminf.    4.55707 (53) obj. 34373 iterations 21
Cbc0038I Pass  71: suminf.    8.63484 (48) obj. 34373 iterations 175
Cbc0038I Pass  72: suminf.    6.75984 (54) obj. 34373 iterations 24
Cbc0038I Pass  73: suminf.    5.67942 (43) obj. 34373 iterations 90
Cbc0038I Pass  74: suminf.    3.94053 (41) obj. 34373 iterations 35
Cbc0038I Pass  75: suminf.    4.81077 (44) obj. 34373 iterations 150
Cbc0038I Pass  76: suminf.    3.05879 (46) obj. 34373 iterations 30
Cbc0038I Pass  77: suminf.    8.53147 (46) obj. 34373 iterations 100
Cbc0038I Pass  78: suminf.    6.54566 (46) obj. 34373 iterations 25
Cbc0038I Pass  79: suminf.    6.32964 (46) obj. 34373 iterations 19
Cbc0038I Pass  80: suminf.    3.17933 (35) obj. 34373 iterations 155
Cbc0038I Pass  81: suminf.    3.05256 (38) obj. 34373 iterations 21
Cbc0038I Pass  82: suminf.    5.44484 (36) obj. 34373 iterations 52
Cbc0038I Pass  83: suminf.    5.25974 (37) obj. 34373 iterations 14
Cbc0038I Pass  84: suminf.    3.18358 (36) obj. 34373 iterations 90
Cbc0038I Pass  85: suminf.    2.75790 (35) obj. 34373 iterations 21
Cbc0038I Pass  86: suminf.    6.41591 (35) obj. 34373 iterations 44
Cbc0038I Pass  87: suminf.    4.06962 (36) obj. 34373 iterations 9
Cbc0038I Pass  88: suminf.    4.94347 (47) obj. 34373 iterations 96
Cbc0038I Pass  89: suminf.    4.46281 (50) obj. 34373 iterations 22
Cbc0038I Pass  90: suminf.    5.16248 (36) obj. 34373 iterations 47
Cbc0038I Pass  91: suminf.    5.22981 (35) obj. 34373 iterations 3
Cbc0038I Pass  92: suminf.    4.54109 (50) obj. 34373 iterations 152
Cbc0038I Pass  93: suminf.    4.45676 (58) obj. 34373 iterations 16
Cbc0038I Pass  94: suminf.    4.40088 (49) obj. 34373 iterations 93
Cbc0038I Pass  95: suminf.    4.04354 (44) obj. 34373 iterations 12
Cbc0038I Pass  96: suminf.    6.10565 (47) obj. 34373 iterations 70
Cbc0038I Pass  97: suminf.    4.25569 (46) obj. 34373 iterations 10
Cbc0038I Pass  98: suminf.    6.73558 (68) obj. 34373 iterations 105
Cbc0038I Pass  99: suminf.    8.31957 (72) obj. 34373 iterations 182
Cbc0038I Pass 100: suminf.    4.81739 (49) obj. 34373 iterations 37
Cbc0038I Pass 101: suminf.    4.81739 (49) obj. 34373 iterations 5
Cbc0038I Pass 102: suminf.    7.01237 (53) obj. 34373 iterations 100
Cbc0038I Pass 103: suminf.    6.85468 (53) obj. 34373 iterations 5
Cbc0038I Pass 104: suminf.   41.86511 (219) obj. 34373 iterations 448
Cbc0038I No solution found this major pass
Cbc0038I Before mini branch and bound, 209 integers at bound fixed and 0 continuous
Cbc0038I Mini branch and bound did not improve solution (0.83 seconds)
Cbc0038I After 0.83 seconds - Feasibility pump exiting with objective of 34816 - took 0.72 seconds
Cbc0012I Integer solution of 34816 found by feasibility pump after 0 iterations and 0 nodes (0.83 seconds)
Cbc0031I 22 added rows had average density of 4.5909091
Cbc0013I At root node, 195 cuts changed objective from 30394.617 to 33280 in 9 passes
Cbc0014I Cut generator 0 (Probing) - 668 row cuts average 3.2 elements, 100 column cuts (100 active)  in 0.049 seconds - new frequency is 1
Cbc0014I Cut generator 1 (Gomory) - 13 row cuts average 14.8 elements, 0 column cuts (0 active)  in 0.061 seconds - new frequency is 1
Cbc0014I Cut generator 2 (Knapsack) - 48 row cuts average 6.4 elements, 0 column cuts (0 active)  in 0.009 seconds - new frequency is 1
Cbc0014I Cut generator 3 (Clique) - 0 row cuts average 0.0 elements, 0 column cuts (0 active)  in 0.001 seconds - new frequency is -100
Cbc0014I Cut generator 4 (MixedIntegerRounding2) - 0 row cuts average 0.0 elements, 0 column cuts (0 active)  in 0.007 seconds - new frequency is -100
Cbc0014I Cut generator 5 (FlowCover) - 2 row cuts average 1.5 elements, 0 column cuts (0 active)  in 0.007 seconds - new frequency is -100
Cbc0014I Cut generator 6 (TwoMirCuts) - 176 row cuts average 89.5 elements, 0 column cuts (0 active)  in 0.055 seconds - new frequency is 1
Cbc0001I Search completed - best objective 34816, took 6167 iterations and 0 nodes (1.91 seconds)
Cbc0035I Maximum depth 0, 2 variables fixed on reduced cost
Cuts at root node changed objective from 30394.6 to 33280
Probing was tried 9 times and created 768 cuts of which 0 were active after adding rounds of cuts (0.049 seconds)
Gomory was tried 9 times and created 13 cuts of which 0 were active after adding rounds of cuts (0.061 seconds)
Knapsack was tried 9 times and created 48 cuts of which 0 were active after adding rounds of cuts (0.009 seconds)
Clique was tried 9 times and created 0 cuts of which 0 were active after adding rounds of cuts (0.001 seconds)
MixedIntegerRounding2 was tried 9 times and created 0 cuts of which 0 were active after adding rounds of cuts (0.007 seconds)
FlowCover was tried 9 times and created 2 cuts of which 0 were active after adding rounds of cuts (0.007 seconds)
TwoMirCuts was tried 9 times and created 176 cuts of which 0 were active after adding rounds of cuts (0.055 seconds)
ZeroHalf was tried 1 times and created 0 cuts of which 0 were active after adding rounds of cuts (0.007 seconds)

Result - Optimal solution found

Objective value:                34816.00000000
Enumerated nodes:               0
Total iterations:               6167
Time (CPU seconds):             1.95
Time (Wallclock seconds):       1.97

Total time (CPU seconds):       1.96   (Wallclock seconds):       1.99

